;(set-option :produce-unsat-cores true )
(set-logic ALL_SUPPORTED )
(declare-sort Ref$ 0 )
(declare-sort Dag$ 0)
(declare-fun tip$ ()Dag$)
(declare-fun select$ (Dag$)Dag$)
(declare-fun selecta$ (Dag$)Ref$)
(declare-fun selectb$ (Dag$)Dag$)
(declare-fun node$ (Dag$ Ref$ Dag$ )Dag$)
(declare-fun x$ ()Dag$ )
(declare-fun y$ ()Dag$ )
(declare-fun z$ ()Dag$ )
(declare-fun less$ (Dag$ Dag$ )Bool )
(declare-fun less_eq$ (Dag$ Dag$ )Bool )
(assert (! (not (less_eq$ x$ z$ )):named a0 ))
(assert (! (= y$ z$ ):named a1 ))
(assert (! (not (= x$ y$ )):named a2 ))
(assert (! (less_eq$ x$ y$ ):named a3 ))
(assert (! (less_eq$ y$ z$ ):named a4 ))
(assert (! (forall ((?v0 Dag$ ))(less_eq$ ?v0 ?v0 )):named a5 ))
(assert (! (less$ x$ y$ ):named a6 ))
(check-sat )
;(get-unsat-core )
